(assert (= (_ bv0 8) #x22 (bvmul #x22 #x22) #x22 #x22))
(check-sat)
(assert (= (bvmul #x22 #x22) #x22 (bvmul #x22 #x22) #x22 #x22))
(check-sat)
(assert (= (bvmul #x22 #x22) #x22 (_ bv0 8) #x22 #x22))
